NAME : gaussian_missing_edges_with_de_seg1_seg2_seg3_random41.5446.tour
COMMENT : Length = 5446
COMMENT : Found by LKH [Keld Helsgaun] Fri Jul 12 16:32:43 2024
TYPE : TOUR
DIMENSION : 41
TOUR_SECTION
1
14
33
9
16
34
18
36
20
19
32
28
37
2
6
21
27
15
40
4
23
25
17
12
5
8
29
3
41
38
26
39
31
35
11
30
22
10
13
7
24
-1
EOF
